(set-logic ALL)
(set-option :produce-models true)
(declare-sort BoundSet 0)
(declare-sort UnboundSet 0)
(declare-fun IsImpressed (BoundSet BoundSet) Bool)
(declare-fun IsBeautiful (BoundSet) Bool)
(assert (not (=> (and (exists ((b BoundSet)) (exists ((a BoundSet)) (IsImpressed b a))) (forall ((d BoundSet)) (forall ((e BoundSet)) (=> (IsImpressed d e) (IsBeautiful e))))) (exists ((a BoundSet)) (IsBeautiful a)))))
(check-sat)
(get-model)